5869 5384 5306 5002 4597 4436 4425 4246 4215 4039 3892 3770 3614 3469 3309 3224 3123 3030 2942 2856 2828 2777 2715 2667 2625 2573 2537 2500 2474 2434 2378 2352 2302 2266 2227 2183 2149 2149 2120 2101 2073 2057 2036 2009 1999 1975 1970 1950 1940 1924 1894 1869 1858 1838 1809 1807 1788 1775 1752 1727 1677 1677 1660 1649 1649 1636 1618 1618 1615 1605 1603 1593 1585 1571 1569 1565 1557 1554 1546 1546 1540 1537 1532 1525 1516 1514 1505 1500 1497 1496 1491 1485 1483 1474 1474 1474 1468 1463 1463 1459 1454 1454 1450 1450 1446 1442 1440 1439 1439 1439 1436 1436 1436 1436 1436 1436 1436 1436 1436 1436 1436 1436 1436 1436 1436 1436 1436 1436 1436 1436 1436 1436 1436 1436 1436 1436 1436 1436 1436 1436 1436 1436 1436 1436 1436 1436 1436 1436 1436 1436 1436 1436 1436 1436 1436 1436 1436 1436 1436 1436 1436 1436 1436 1436 1436 1436 1436 1436 1436 1436 1436 1436 1436 1436 1436 1436 1436 1436 1436 1436 1436 1436 1436 1436 1436 1436 1436 1436 1436 1436 1436 1436 1436 1436 1436 1436 1436 1436 1436 1436 1436 1436 1436 1436 1436 1436 1436 1436 1436 1436 1436 1436 1436 1436 1436 1436 1436 1436 1436 1436 1436 1436 1436 1436 1436 1436 1436 1436 1436 1436 1436 1436 1436 1436 1436 1436 1436 1436 1436 1436 1436 1436 1436 1436 1436 1436 1436 1436 1436 1436 1436 1436 1436 1436 1436 1436 1436 1436 1436 1436 1436 1436 1436 1436 1436 1436 1436 1436 1436 1436 1436 1436 1436 1436 1436 1436 1436 1436 1436 1436 1436 1436 1436 1436 1436 1436 1436 1436 1436 1436 1436 1436 1436 1436 1436 1436 1436 1436 1436 1436 1436 1436 1436 1436 1436 1436 1436 1436 1436 1436 1436 1436 1436 1436 1436 1436 1436 1436 1436 1436 1436 1436 1436 1436 1436 1436 1436 1436 1436 1436 1436 1436 1436 1436 1436 1436 1436 1436 1436 1436 1436 1436 1436 1436 1436 1436 1436 1436 1436 1436 1436 1436 1436 1436 1436 1436 1436 1436 1436 1436 1436 1436 1436 1436 1436 1436 1436 1436 1436 1436 1436 1436 1436 1436 1436 1436 1436 1436 1436 1436 1436 1436 1436 1436 1436 1436 1436 1436 1436 1436 1436 1436 1436 1436 1436 1436 1436 1436 1436 1436 1436 1436 1436 1436 1436 1436 1436 1436 1436 1436 1436 1436 1436 1436 1436 1436 1436 1436 1436 1436 1436 1436 1436 1436 1436 1436 1436 1436 1436 1436 1436 1436 1436 1436 1436 1436 1436 1436 1436 1436 1436 1436 1436 1436 1436 1436 1436 1436 1436 1436 1436 1436 1436 1436 1436 1436 1436 1436 1436 1436 1436 1436 1436 1436 1436 1436 1436 1436 1436 1436 1436 1436 1436 1436 1436 1436 1436 1436 1436 1436 1436 1436 1436 1436 1436 1436 1436 1436 1436 1436 1436 1436 1436 1436 1436 1436 1436 1436 1436 1436 1436 1436 1436 1436 1436 1436 1436 1436 1436 1436 1436 1436 1436 1436 1436 1436 1436 1436 1436 1436 1436 1436 1436 1436 1436 1436 1436 1436 1436 1436 1436 1436 1436 1436 1436 1436 1436 1436 1436 1436 1436 1436 1436 1436 1436 1436 1436 1436 1436 1436 1436 1436 1436 1436 1436 1436 1436 1436 1436 1436 1436 1436 1436 1436 1436 1436 1436 1436 1436 1436 1436 1436 1436 1436 1436 1436 1436 1436 1436 1436 1436 1436 1436 1436 1436 1436 1436 1436 1436 1436 1436 1436 1436 1436 1436 1436 1436 1436 1436 1436 1436 1436 1436 1436 1436 1436 1436 1436 1436 1436 1436 1436 1436 1436 1436 1436 1436 1436 1436 1436 1436 1436 1436 1436 1436 1436 1436 1436 1436 1436 1436 1436 1436 1436 1436 1436 1436 1428 1428 1428 1428 1422 1422 1422 1422 1422 1422 1422 1422 1422 1422 1422 1422 1422 1422 1422 1422 1422 1422 1422 1422 1422 1422 1422 1422 1422 1422 1422 1422 1422 1422 1422 1422 1422 1422 1422 1422 1422 1422 1422 1422 1422 1422 1422 1422 1422 1422 1422 1422 1422 1422 1422 1422 1422 1422 1422 1422 1422 1422 1422 1422 1422 1422 1422 1422 1422 1422 1422 1422 1422 1422 1422 1422 1422 1422 1422 1422 1422 1422 1422 1422 1422 1422 1422 1422 1422 1422 1422 1422 1422 1422 1422 1422 1422 1422 1422 1422 1422 1422 1422 1422 1422 1422 1422 1422 1422 1422 1422 1422 1422 1422 1422 1422 1422 1422 1422 1422 1422 1422 1422 1422 1422 1422 1422 1422 1422 1422 1422 1422 1422 1422 1422 1422 1422 1422 1422 1422 1422 1422 1422 1422 1422 1422 1422 1422 1422 1422 1422 1422 1422 1422 1422 1422 1422 1422 1422 1422 1422 1422 1422 1422 1422 1422 1422 1422 1422 1422 1422 1422 1422 1422 1422 1422 1422 1422 1422 1422 1422 1422 1422 1422 1422 1422 1422 1422 1422 1422 1422 1422 1422 1422 1422 1422 1422 1422 1422 1422 1422 1422 1422 1422 1422 1422 1422 1422 1422 1422 1422 1422 1422 1422 1422 1422 1422 1422 1422 1422 1422 1422 1422 1422 1422 1422 1422 1422 1422 1422 1422 1422 1422 1422 1422 1422 1422 1422 1422 1422 1422 1422 1422 1422 1422 1422 1422 1422 1422 1422 1422 1422 1422 1422 1422 1422 1422 1422 1422 1422 1422 1422 1422 1422 1422 1422 1422 1422 1422 1422 1422 1422 1422 1422 1422 1422 1422 1422 1422 1422 1422 1422 1422 1422 1422 1422 1422 1422 1422 1422 1422 1422 1422 1422 1422 1422 1422 1422 1422 1422 1422 1422 1422 1422 1422 1422 1422 1422 1422 1422 1422 1422 1422 1422 1422 1422 1422 1422 1422 1422 1422 1422 1422 1422 1422 1422 1422 1422 1422 1422 1422 1422 1422 1422 1422 1422 1422 1422 1422 1422 1422 1422 1422 1422 1422 1422 1422 1422 1422 1422 1422 1422 1422 1422 1422 1422 1422 1422 1422 1422 1422 1422 1422 1422 1422 1422 1422 1422 1422 1422 1422 1422 1422 1422 1422 1422 1422 1422 1422 1422 1422 1422 1422 1422 1422 1422 1422 1422 1422 1422 1422 1422 1422 1422 1422 1422 1422 1422 1422 1422 1422 1422 1422 1422 1422 1422 1422 1422 1422 1422 1422 1422 1422 1422 1422 1422 1422 1422 1422 1422 1422 1422 1422 1422 1422 1422 1422 1422 1422 1422 1422 1422 1422 1422 1422 1422 1422 1422 1422 1422 1422 1422 1422 1422 1422 1422 1422 1422 1422 1422 1422 1422 1422 1422 1422 1422 1422 1422 1422 1422 1422 1422 1422 1422 1422 1422 1422 1422 1422 1422 1422 1422 1422 1422 1422 1422 1422 1422 1422 1422 1422 1422 1422 1422 1422 1422 1422 1422 1422 1422 1422 1422 1422 1422 1422 1422 1422 1422 1422 1422 1422 1422 1422 1422 1422 1422 1422 1422 1422 1422 1422 1422 1422 1422 1422 1422 1422 1422 1422 1422 1422 1422 1422 1422 1422 1422 1422 1422 1422 1422 1422 1422 1422 1422 1422 1422 1422 1422 1422 1422 1422 1422 1422 1422 1422 1422 1422 1422 1422 1422 1422 1422 1422 1422 1422 1422 1422 1422 1422 1422 1422 1422 1422 1422 1422 1422 1422 1422 1422 1422 1422 1422 1422 1422 1422 1422 1422 1422 1422 1422 1422 1422 1422 1422 1422 1422 1422 1422 1422 1422 1422 1422 1422 1422 1422 1422 1422 1422 1422 1422 1422 1422 1422 1422 1422 1422 1422 1422 1422 1422 1422 1422 1422 1422 1422 1422 1422 1422 1422 1422 1422 1422 1422 1422 1422 1422 1422 1422 1422 1422 1422 1422 1422 1422 1422 1422 1422 1422 1422 1422 1422 1422 1422 1422 1422 1422 1422 1422 1422 1422 1422 1422 1422 1422 1422 1422 1422 1422 1422 1422 1422 1422 1422 1422 1422 1422 1422 1422 1422 1422 1422 1422 1422 1422 1422 1422 1422 1422 1422 1422 1422 1422 1422 1422 1422 1422 1422 1422 1422 1422 1422 1422 1422 1422 1422 1422 1422 1422 1422 1422 1422 1422 1422 1422 1422 1422 1422 1422 1422 1422 1422 1422 1422 1422 1422 1422 1422 1422 1422 1422 1422 1422 1422 1422 1422 1422 1422 1422 1422 1422 1422 1422 1422 1422 1422 1422 1422 1422 1422 1422 1422 1422 1422 1422 1422 1422 1422 1422 1422 1422 1422 1422 1422 1422 1422 1422 1422 1422 1422 1422 1422 1422 1422 1422 1422 1422 1422 1422 1422 1422 1422 1422 1422 1422 1422 1422 1422 1422 1422 1422 1422 1422 1422 1422 1422 1422 1422 1422 1422 1422 1422 1422 1422 1422 1422 1422 1422 1422 1422 1422 1422 1422 1422 1422 1422 1422 1422 1422 1422 1422 1422 1422 1422 1422 1422 1422 1422 1422 1422 1422 1422 1422 1422 1422 1422 1422 1422 1422 1422 1422 1422 1422 1422 1422 1422 1422 1422 1422 1422 1422 1422 1422 1422 1422 1422 1422 1422 1422 1422 1422 1422 1422 1422 1422 1422 1422 1422 1422 1422 1422 1422 1422 1422 1422 1422 1422 1422 1422 1422 1422 1422 1422 1422 1422 1422 1422 1422 1422 1422 1422 1422 1422 1422 1422 1422 1422 1422 1422 1422 1422 1422 1422 1422 1422 1422 1422 1422 1422 1422 1422 1422 1422 1422 1422 1422 1422 1422 1422 1422 1422 1422 1422 1422 1422 1422 1422 1422 1422 1422 1422 1422 1422 1422 1422 1422 1422 1422 1422 1422 1422 1422 1422 1422 1422 1422 1422 1422 1422 1422 1422 1422 1422 1422 1422 1422 1422 1422 1422 1422 1422 1422 1422 1422 1422 1422 1422 1422 1422 1422 1422 1422 1422 1422 1422 1422 1422 1422 1422 1422 1422 1422 1422 1422 1422 1422 1422 1422 1422 1422 1422 1422 1422 1422 1422 1422 1422 1422 1422 1422 1422 1422 1422 1422 1422 1422 1422 1422 1422 1422 1422 1422 1422 1422 1422 1422 1422 1422 1422 1422 1422 1422 1422 1422 1422 1422 1422 1422 1422 1422 1422 1422 1422 1422 1422 1422 1422 1422 1422 1422 1422 1422 1422 1422 1422 1422 1422 1422 1422 1422 1422 1422 1422 1422 1422 1422 1422 1422 1422 1422 1422 1422 1422 1422 1422 1422 1422 1422 1422 1422 1422 1422 1422 1422 1422 1422 1422 1422 1422 1422 1422 1422 1422 1422 1422 1422 1422 1422 1422 1422 1422 1422 1422 1422 1422 1422 1422 1422 1422 1422 1422 1422 1422 1422 1422 1422 1422 1422 1422 1422 1422 1422 1422 1422 1422 1422 1422 1422 1422 1422 1422 1422 1422 1422 1422 1422 1422 1422 1422 1422 1422 1422 1422 1422 1422 1422 1422 1422 1422 1422 1422 1422 1422 1422 1422 1422 1422 1422 1422 1422 1422 1422 1422 1422 1422 1422 1422 1422 1422 1422 1422 1422 1422 1422 1422 1422 1422 1422 1422 1422 1422 1422 1422 1422 1422 1422 1422 1422 1422 1422 1422 1422 1422 1422 1422 1422 1422 1422 1422 1422 1422 1422 1422 1422 1422 1422 1422 1422 1422 1422 1422 1422 1422 1422 1422 1422 1422 1422 1422 1422 1422 1422 1422 1422 1422 1422 1422 1422 1422 1422 1422 1422 1422 1422 1422 1422 1422 1422 1422 1422 1422 1422 1422 1422 1422 1422 1422 1422 1422 1422 1422 1422 1422 1422 1422 1422 1422 1422 1422 1422 1422 1422 1422 1422 1422 1422 1422 1422 1422 1422 1422 1422 1422 1422 1422 1422 1422 1422 1422 1422 1422 1422 1422 1422 1422 1422 1422 1422 1422 1422 1422 1422 1422 1422 1422 1422 1422 1422 1422 1422 1422 1422 1422 1422 1422 1422 1422 1422 1422 1422 1422 1422 1422 1422 1422 1422 1422 1422 1422 1422 1422 1422 1422 1422 1422 1422 1422 1422 1422 1422 1422 1422 1422 1422 1422 1422 1422 1422 1422 1422 1422 1422 1422 1422 1422 1422 1422 1422 1422 1422 1422 1422 1422 1422 1422 1422 1422 1422 1422 1422 1422 1422 1422 1422 1422 1422 1422 1422 1422 1422 1422 1422 1422 1422 1422 1422 1422 1422 1422 1422 1422 1422 1422 1422 
6954 6375 5979 5677 5417 5193 4987 4775 4530 4386 4209 4058 3918 3782 3645 3511 3379 3254 3151 3059 2972 2903 2841 2786 2739 2692 2642 2593 2544 2507 2471 2431 2390 2348 2307 2262 2229 2206 2179 2157 2133 2112 2089 2065 2045 2021 1998 1984 1968 1955 1939 1921 1899 1875 1853 1836 1821 1805 1793 1781 1766 1741 1716 1679 1673 1658 1648 1646 1634 1622 1617 1612 1602 1591 1582 1578 1570 1567 1564 1558 1551 1545 1545 1540 1535 1529 1520 1514 1513 1505 1500 1496 1493 1486 1486 1482 1475 1473 1473 1468 1462 1460 1460 1458 1453 1449 1447 1447 1441 1439 1438 1438 1438 1436 1436 1436 1436 1436 1436 1436 1436 1436 1436 1436 1436 1436 1436 1436 1436 1436 1436 1436 1436 1436 1436 1436 1436 1436 1436 1436 1436 1436 1436 1436 1436 1436 1436 1436 1436 1436 1436 1436 1436 1436 1436 1436 1436 1436 1436 1436 1436 1436 1436 1436 1436 1436 1436 1436 1436 1436 1436 1436 1436 1436 1436 1436 1436 1436 1436 1436 1436 1436 1436 1436 1436 1436 1436 1436 1436 1436 1436 1436 1436 1436 1436 1436 1436 1436 1436 1436 1436 1436 1436 1436 1436 1436 1436 1436 1436 1436 1436 1436 1436 1436 1436 1436 1436 1436 1436 1436 1436 1436 1436 1436 1436 1436 1436 1436 1436 1436 1436 1436 1436 1436 1436 1436 1436 1436 1436 1436 1436 1436 1436 1436 1436 1436 1436 1436 1436 1436 1436 1436 1436 1436 1436 1436 1436 1436 1436 1436 1436 1436 1436 1436 1436 1436 1436 1436 1436 1436 1436 1436 1436 1436 1436 1436 1436 1436 1436 1436 1436 1436 1436 1436 1436 1436 1436 1436 1436 1436 1436 1436 1436 1436 1436 1436 1436 1436 1436 1436 1436 1436 1436 1436 1436 1436 1436 1436 1436 1436 1436 1436 1436 1436 1436 1436 1436 1436 1436 1436 1436 1436 1436 1436 1436 1436 1436 1436 1436 1436 1436 1436 1436 1436 1436 1436 1436 1436 1436 1436 1436 1436 1436 1436 1436 1436 1436 1436 1436 1436 1436 1436 1436 1436 1436 1436 1436 1436 1436 1436 1436 1436 1436 1436 1436 1436 1436 1436 1436 1436 1436 1436 1436 1436 1436 1436 1436 1436 1436 1436 1436 1436 1436 1436 1436 1436 1436 1436 1436 1436 1436 1436 1436 1436 1436 1436 1436 1436 1436 1436 1436 1436 1436 1436 1436 1436 1436 1436 1436 1436 1436 1436 1436 1436 1436 1436 1436 1436 1436 1436 1436 1436 1436 1436 1436 1436 1436 1436 1436 1436 1436 1436 1436 1436 1436 1436 1436 1436 1436 1436 1436 1436 1436 1436 1436 1436 1436 1436 1436 1436 1436 1436 1436 1436 1436 1436 1436 1436 1436 1436 1436 1436 1436 1436 1436 1436 1436 1436 1436 1436 1436 1436 1436 1436 1436 1436 1436 1436 1436 1436 1436 1436 1436 1436 1436 1436 1436 1436 1436 1436 1436 1436 1436 1436 1436 1436 1436 1436 1436 1436 1436 1436 1436 1436 1436 1436 1436 1436 1436 1436 1436 1436 1436 1436 1436 1436 1436 1436 1436 1436 1436 1436 1436 1436 1436 1436 1436 1436 1436 1436 1436 1436 1436 1436 1436 1436 1436 1436 1436 1436 1436 1436 1436 1436 1436 1436 1436 1436 1436 1436 1436 1436 1436 1436 1436 1436 1436 1436 1436 1436 1436 1436 1436 1436 1436 1436 1436 1436 1436 1436 1436 1436 1436 1436 1436 1436 1436 1436 1436 1436 1436 1436 1436 1436 1436 1436 1436 1436 1436 1436 1436 1436 1436 1436 1436 1436 1436 1436 1436 1436 1436 1436 1436 1436 1436 1436 1436 1436 1436 1436 1436 1436 1436 1436 1436 1436 1436 1436 1436 1436 1436 1436 1436 1436 1436 1436 1436 1436 1436 1436 1436 1436 1436 1436 1436 1436 1436 1435 1435 1435 1432 1427 1427 1426 1422 1422 1422 1422 1422 1422 1422 1422 1422 1422 1422 1422 1422 1422 1422 1422 1422 1422 1422 1422 1422 1422 1422 1422 1422 1422 1422 1422 1422 1422 1422 1422 1422 1422 1422 1422 1422 1422 1422 1422 1422 1422 1422 1422 1422 1422 1422 1422 1422 1422 1422 1422 1422 1422 1422 1422 1422 1422 1422 1422 1422 1422 1422 1422 1422 1422 1422 1422 1422 1422 1422 1422 1422 1422 1422 1422 1422 1422 1422 1422 1422 1422 1422 1422 1422 1422 1422 1422 1422 1422 1422 1422 1422 1422 1422 1422 1422 1422 1422 1422 1422 1422 1422 1422 1422 1422 1422 1422 1422 1422 1422 1422 1422 1422 1422 1422 1422 1422 1422 1422 1422 1422 1422 1422 1422 1422 1422 1422 1422 1422 1422 1422 1422 1422 1422 1422 1422 1422 1422 1422 1422 1422 1422 1422 1422 1422 1422 1422 1422 1422 1422 1422 1422 1422 1422 1422 1422 1422 1422 1422 1422 1422 1422 1422 1422 1422 1422 1422 1422 1422 1422 1422 1422 1422 1422 1422 1422 1422 1422 1422 1422 1422 1422 1422 1422 1422 1422 1422 1422 1422 1422 1422 1422 1422 1422 1422 1422 1422 1422 1422 1422 1422 1422 1422 1422 1422 1422 1422 1422 1422 1422 1422 1422 1422 1422 1422 1422 1422 1422 1422 1422 1422 1422 1422 1422 1422 1422 1422 1422 1422 1422 1422 1422 1422 1422 1422 1422 1422 1422 1422 1422 1422 1422 1422 1422 1422 1422 1422 1422 1422 1422 1422 1422 1422 1422 1422 1422 1422 1422 1422 1422 1422 1422 1422 1422 1422 1422 1422 1422 1422 1422 1422 1422 1422 1422 1422 1422 1422 1422 1422 1422 1422 1422 1422 1422 1422 1422 1422 1422 1422 1422 1422 1422 1422 1422 1422 1422 1422 1422 1422 1422 1422 1422 1422 1422 1422 1422 1422 1422 1422 1422 1422 1422 1422 1422 1422 1422 1422 1422 1422 1422 1422 1422 1422 1422 1422 1422 1422 1422 1422 1422 1422 1422 1422 1422 1422 1422 1422 1422 1422 1422 1422 1422 1422 1422 1422 1422 1422 1422 1422 1422 1422 1422 1422 1422 1422 1422 1422 1422 1422 1422 1422 1422 1422 1422 1422 1422 1422 1422 1422 1422 1422 1422 1422 1422 1422 1422 1422 1422 1422 1422 1422 1422 1422 1422 1422 1422 1422 1422 1422 1422 1422 1422 1422 1422 1422 1422 1422 1422 1422 1422 1422 1422 1422 1422 1422 1422 1422 1422 1422 1422 1422 1422 1422 1422 1422 1422 1422 1422 1422 1422 1422 1422 1422 1422 1422 1422 1422 1422 1422 1422 1422 1422 1422 1422 1422 1422 1422 1422 1422 1422 1422 1422 1422 1422 1422 1422 1422 1422 1422 1422 1422 1422 1422 1422 1422 1422 1422 1422 1422 1422 1422 1422 1422 1422 1422 1422 1422 1422 1422 1422 1422 1422 1422 1422 1422 1422 1422 1422 1422 1422 1422 1422 1422 1422 1422 1422 1422 1422 1422 1422 1422 1422 1422 1422 1422 1422 1422 1422 1422 1422 1422 1422 1422 1422 1422 1422 1422 1422 1422 1422 1422 1422 1422 1422 1422 1422 1422 1422 1422 1422 1422 1422 1422 1422 1422 1422 1422 1422 1422 1422 1422 1422 1422 1422 1422 1422 1422 1422 1422 1422 1422 1422 1422 1422 1422 1422 1422 1422 1422 1422 1422 1422 1422 1422 1422 1422 1422 1422 1422 1422 1422 1422 1422 1422 1422 1422 1422 1422 1422 1422 1422 1422 1422 1422 1422 1422 1422 1422 1422 1422 1422 1422 1422 1422 1422 1422 1422 1422 1422 1422 1422 1422 1422 1422 1422 1422 1422 1422 1422 1422 1422 1422 1422 1422 1422 1422 1422 1422 1422 1422 1422 1422 1422 1422 1422 1422 1422 1422 1422 1422 1422 1422 1422 1422 1422 1422 1422 1422 1422 1422 1422 1422 1422 1422 1422 1422 1422 1422 1422 1422 1422 1422 1422 1422 1422 1422 1422 1422 1422 1422 1422 1422 1422 1422 1422 1422 1422 1422 1422 1422 1422 1422 1422 1422 1422 1422 1422 1422 1422 1422 1422 1422 1422 1422 1422 1422 1422 1422 1422 1422 1422 1422 1422 1422 1422 1422 1422 1422 1422 1422 1422 1422 1422 1422 1422 1422 1422 1422 1422 1422 1422 1422 1422 1422 1422 1422 1422 1422 1422 1422 1422 1422 1422 1422 1422 1422 1422 1422 1422 1422 1422 1422 1422 1422 1422 1422 1422 1422 1422 1422 1422 1422 1422 1422 1422 1422 1422 1422 1422 1422 1422 1422 1422 1422 1422 1422 1422 1422 1422 1422 1422 1422 1422 1422 1422 1422 1422 1422 1422 1422 1422 1422 1422 1422 1422 1422 1422 1422 1422 1422 1422 1422 1422 1422 1422 1422 1422 1422 1422 1422 1422 1422 1422 1422 1422 1422 1422 1422 1422 1422 1422 1422 1422 1422 1422 1422 1422 1422 1422 1422 1422 1422 1422 1422 1422 1422 1422 1422 1422 1422 1422 1422 1422 1422 1422 1422 1422 1422 1422 1422 1422 1422 1422 1422 1422 1422 1422 1422 1422 1422 1422 1422 1422 1422 1422 1422 1422 1422 1422 1422 1422 1422 1422 1422 1422 1422 1422 1422 1422 1422 1422 1422 1422 1422 1422 1422 1422 1422 1422 1422 1422 1422 1422 1422 1422 1422 1422 1422 1422 1422 1422 1422 1422 1422 1422 1422 1422 1422 1422 1422 1422 1422 1422 1422 1422 1422 1422 1422 1422 1422 1422 1422 1422 1422 1422 1422 1422 1422 1422 1422 1422 1422 1422 1422 1422 1422 1422 1422 1422 1422 1422 1422 1422 1422 1422 1422 1422 1422 1422 1422 1422 1422 1422 1422 1422 1422 1422 1422 1422 1422 1422 1422 1422 1422 1422 1422 1422 1422 1422 1422 1422 1422 1422 1422 1422 1422 1422 1422 1422 1422 1422 1422 1422 1422 1422 1422 1422 1422 1422 1422 1422 1422 1422 1422 1422 1422 1422 1422 1422 1422 1422 1422 1422 1422 1422 1422 1422 1422 1422 1422 1422 1422 1422 1422 1422 1422 1422 1422 1422 1422 1422 1422 1422 1422 1422 1422 1422 1422 1422 1422 1422 1422 1422 1422 1422 1422 1422 1422 1422 1422 1422 1422 1422 1422 1422 1422 1422 1422 1422 1422 1422 1422 1422 1422 1422 1422 1422 1422 1422 1422 1422 1422 1422 1422 1422 1422 1422 1422 1422 1422 1422 1422 1422 1422 1422 1422 1422 1422 1422 1422 1422 1422 1422 1422 1422 1422 1422 1422 1422 1422 1422 1422 1422 1422 1422 1422 1422 1422 1422 1422 1422 1422 1422 1422 1422 1422 1422 1422 1422 1422 1422 1422 1422 1422 1422 1422 1422 1422 1422 1422 1422 1422 1422 1422 1422 1422 1422 1422 1422 1422 1422 1422 1422 1422 1422 1422 1422 1422 1422 1422 1422 1422 1422 1422 1422 1422 1422 1422 1422 1422 1422 1422 1422 1422 1422 1422 1422 1422 1422 1422 1422 1422 1422 1422 1422 1422 1422 1422 1422 1422 1422 1422 1422 1422 1422 1422 1422 1422 1422 1422 1422 1422 1422 1422 1422 1422 1422 1422 1422 1422 1422 1422 1422 1422 1422 1422 1422 1422 1422 1422 1422 1422 1422 1422 1422 1422 1422 1422 1422 1422 1422 1422 1422 1422 1422 1422 1422 1422 1422 1422 1422 1422 1422 1422 1422 1422 1422 1422 1422 1422 1422 1422 1422 1422 1422 1422 1422 1422 1422 1422 1422 1422 1422 1422 1422 1422 1422 1422 1422 1422 1422 1422 1422 1422 1422 1422 1422 1422 1422 1422 1422 1422 1422 1422 1422 1422 1422 1422 1422 1422 1422 1422 1422 1422 1422 1422 1422 1422 1422 1422 1422 1422 1422 1422 1422 1422 1422 1422 1422 1422 1422 1422 1422 1422 1422 1422 1422 1422 1422 1422 1422 1422 1422 1422 1422 1422 1422 1422 1422 1422 1422 1422 1422 1422 1422 1422 1422 1422 1422 1422 1422 1422 1422 1422 1422 1422 1422 1422 1422 1422 1422 1422 1422 1422 1422 1422 1422 1422 1422 1422 1422 1422 1422 1422 1422 1422 1422 1422 1422 1422 1422 1422 1422 1422 1422 1422 1422 1422 1422 1422 1422 1422 1422 1422 1422 1422 1422 1422 1422 1422 1422 1422 1422 1422 1422 1422 1422 1422 1422 1422 1422 1422 1422 1422 1422 